(declare-fun temp10775_1 () (_ BitVec 64))
(declare-fun temp10775_2 () (_ BitVec 64))
(declare-fun temp10775_3 () (_ BitVec 64))
(declare-fun ARGNAME_w_hh_NAMEEND_DIMSIZE
             ()
             (Array (_ BitVec 64) (_ BitVec 64)))
(declare-fun temp10775_4 () (_ BitVec 64))
(declare-fun temp10775_5 () (_ BitVec 64))
(declare-fun temp10775_6 () (_ BitVec 64))
(declare-fun temp10775_7 () (_ BitVec 64))
(declare-fun temp10775_8 () (_ BitVec 64))
(declare-fun temp10775_9 () (_ BitVec 64))
(declare-fun temp10775_10 () (_ BitVec 64))
(declare-fun temp10775_11 () (_ BitVec 64))
(declare-fun temp10775_12 () (_ BitVec 64))
(declare-fun temp10775_13 () (_ BitVec 64))
(declare-fun temp10775_14 () (_ BitVec 64))
(declare-fun temp10775_15 () (_ BitVec 64))
(declare-fun temp10775_16 () (_ BitVec 64))
(declare-fun temp10775_17 () (_ BitVec 64))
(declare-fun temp10775_18 () (_ BitVec 64))
(declare-fun temp10775_19 () (_ BitVec 64))
(declare-fun temp10775_20 () (_ BitVec 64))
(declare-fun temp10775_21 () (_ BitVec 64))
(declare-fun temp10775_22 () (_ BitVec 64))
(declare-fun temp10775_23 () (_ BitVec 64))
(declare-fun temp10775_24 () (_ BitVec 64))
(declare-fun ARGNAME_input_NAMEEND_DIMSIZE
             ()
             (Array (_ BitVec 64) (_ BitVec 64)))
(declare-fun temp10775_25 () (_ BitVec 64))
(declare-fun temp10775_26 () (_ BitVec 64))
(declare-fun temp10775_27 () (_ BitVec 64))
(declare-fun temp10775_28 () (_ BitVec 64))
(declare-fun temp10775_29 () (_ BitVec 64))
(declare-fun temp10775_30 () (_ BitVec 64))
(declare-fun temp10775_31 () (_ BitVec 64))
(declare-fun temp10775_32 () (_ BitVec 64))
(declare-fun temp10775_33 () (_ BitVec 64))
(declare-fun temp10775_34 () (_ BitVec 64))
(declare-fun temp10775_35 () (_ BitVec 64))
(declare-fun temp10775_36 () (_ BitVec 64))
(declare-fun temp10775_37 () (_ BitVec 64))
(declare-fun temp10775_38 () (_ BitVec 64))
(declare-fun temp10775_39 () (_ BitVec 64))
(declare-fun temp10775_40 () (_ BitVec 64))
(declare-fun temp10775_41 () (_ BitVec 64))
(declare-fun temp10775_42 () (_ BitVec 64))
(declare-fun temp10775_43 () (_ BitVec 64))
(declare-fun temp10775_44 () (_ BitVec 64))
(declare-fun var404256 () (_ BitVec 64))
(declare-fun k!0 () (_ BitVec 64))
(declare-fun k!1 () (_ BitVec 64))
(declare-fun k!2 () Bool)
(declare-fun ARGNAME_w_hh_NAMEEND_DIM () (_ BitVec 64))
(declare-fun ARGNAME_input_NAMEEND_DIM () (_ BitVec 64))
(declare-fun temp10775_45 () (_ BitVec 64))
(declare-fun temp10775_46 () (_ BitVec 64))
(declare-fun ARGNAME_b_ih_NAMEEND_DIMSIZE
             ()
             (Array (_ BitVec 64) (_ BitVec 64)))
(declare-fun temp10775_47 () (_ BitVec 64))
(declare-fun temp10775_48 () (_ BitVec 64))
(declare-fun temp10775_49 () (_ BitVec 64))
(declare-fun temp10775_50 () (_ BitVec 64))
(declare-fun temp10775_51 () (_ BitVec 64))
(declare-fun temp10775_52 () (_ BitVec 64))
(declare-fun temp10775_53 () (_ BitVec 64))
(declare-fun temp10775_54 () (_ BitVec 64))
(declare-fun temp10775_55 () (_ BitVec 64))
(declare-fun temp10775_56 () (_ BitVec 64))
(declare-fun temp10775_57 () (_ BitVec 64))
(declare-fun temp10775_58 () (_ BitVec 64))
(declare-fun temp10775_59 () (_ BitVec 64))
(declare-fun temp10775_60 () (_ BitVec 64))
(declare-fun temp10775_61 () (_ BitVec 64))
(declare-fun temp10775_62 () (_ BitVec 64))
(declare-fun temp10775_63 () (_ BitVec 64))
(declare-fun temp10775_64 () (_ BitVec 64))
(declare-fun temp10775_65 () (_ BitVec 64))
(declare-fun ARGNAME_b_ih_NAMEEND_DIM () (_ BitVec 64))
(declare-fun temp10775_66 () (_ BitVec 64))
(declare-fun var65706 () (_ BitVec 64))
(declare-fun temp10775_67 () (_ BitVec 64))
(declare-fun temp10775_68 () (_ BitVec 64))
(declare-fun temp10775_69 () (_ BitVec 64))
(declare-fun temp10775_70 () (_ BitVec 64))
(declare-fun temp10775_71 () (_ BitVec 64))
(declare-fun temp10775_72 () (_ BitVec 64))
(declare-fun var68976 () (_ BitVec 64))
(declare-fun temp10775_73 () (_ BitVec 64))
(declare-fun temp10775_74 () (_ BitVec 64))
(declare-fun temp10775_75 () (_ BitVec 64))
(declare-fun temp10775_76 () (_ BitVec 64))
(declare-fun temp10775_77 () (_ BitVec 64))
(declare-fun temp10775_78 () (_ BitVec 64))
(declare-fun temp10775_79 () (_ BitVec 64))
(declare-fun temp10775_80 () (_ BitVec 64))
(declare-fun var2041840 () (_ BitVec 64))
(declare-fun temp10775_81 () (_ BitVec 64))
(declare-fun temp10775_82 () (_ BitVec 64))
(declare-fun var2887497 () (_ BitVec 64))
(declare-fun temp10775_83 () (_ BitVec 64))
(declare-fun var3215425 () (_ BitVec 64))
(declare-fun temp10775_84 () (_ BitVec 64))
(declare-fun var3215426 () (_ BitVec 64))
(declare-fun temp10775_85 () (_ BitVec 64))
(declare-fun var3280971 () (_ BitVec 64))
(declare-fun temp10775_86 () (_ BitVec 64))
(declare-fun var3412043 () (_ BitVec 64))
(declare-fun temp10775_87 () (_ BitVec 64))
(declare-fun var3543115 () (_ BitVec 64))
(declare-fun temp10775_88 () (_ BitVec 64))
(declare-fun var3674187 () (_ BitVec 64))
(declare-fun temp10775_89 () (_ BitVec 64))
(declare-fun var3805001 () (_ BitVec 64))
(assert (= temp10775_1 #x0000000000000000))
(assert (= temp10775_2 temp10775_1))
(assert (= temp10775_3 (select ARGNAME_w_hh_NAMEEND_DIMSIZE temp10775_2)))
(assert (= temp10775_4 #x0000000000000001))
(assert (= temp10775_5 temp10775_4))
(assert (= temp10775_6 (select ARGNAME_w_hh_NAMEEND_DIMSIZE temp10775_5)))
(assert (= temp10775_7 #x0000000000000002))
(assert (= temp10775_8 temp10775_7))
(assert (= temp10775_9 (select ARGNAME_w_hh_NAMEEND_DIMSIZE temp10775_8)))
(assert (= temp10775_10 #x0000000000000003))
(assert (= temp10775_11 temp10775_10))
(assert (= temp10775_12 (select ARGNAME_w_hh_NAMEEND_DIMSIZE temp10775_11)))
(assert (= temp10775_13 #x0000000000000004))
(assert (= temp10775_14 temp10775_13))
(assert (= temp10775_15 (select ARGNAME_w_hh_NAMEEND_DIMSIZE temp10775_14)))
(assert (= temp10775_16 #x0000000000000005))
(assert (= temp10775_17 temp10775_16))
(assert (= temp10775_18 (select ARGNAME_w_hh_NAMEEND_DIMSIZE temp10775_17)))
(assert (= temp10775_19 #x0000000000000001))
(assert (= temp10775_20 temp10775_19))
(assert (= temp10775_21 (select ARGNAME_w_hh_NAMEEND_DIMSIZE temp10775_20)))
(assert (bvsgt ARGNAME_w_hh_NAMEEND_DIM temp10775_19))
(assert (bvsge temp10775_19 (bvneg ARGNAME_w_hh_NAMEEND_DIM)))
(assert (= temp10775_22 #x0000000000000000))
(assert (= temp10775_23 temp10775_22))
(assert (= temp10775_24 (select ARGNAME_input_NAMEEND_DIMSIZE temp10775_23)))
(assert (= temp10775_25 #x0000000000000001))
(assert (= temp10775_26 temp10775_25))
(assert (= temp10775_27 (select ARGNAME_input_NAMEEND_DIMSIZE temp10775_26)))
(assert (= temp10775_28 #x0000000000000002))
(assert (= temp10775_29 temp10775_28))
(assert (= temp10775_30 (select ARGNAME_input_NAMEEND_DIMSIZE temp10775_29)))
(assert (= temp10775_31 #x0000000000000003))
(assert (= temp10775_32 temp10775_31))
(assert (= temp10775_33 (select ARGNAME_input_NAMEEND_DIMSIZE temp10775_32)))
(assert (= temp10775_34 #x0000000000000004))
(assert (= temp10775_35 temp10775_34))
(assert (= temp10775_36 (select ARGNAME_input_NAMEEND_DIMSIZE temp10775_35)))
(assert (= temp10775_37 #x0000000000000005))
(assert (= temp10775_38 temp10775_37))
(assert (= temp10775_39 (select ARGNAME_input_NAMEEND_DIMSIZE temp10775_38)))
(assert (= temp10775_40 #x0000000000000001))
(assert (= temp10775_41 temp10775_40))
(assert (= temp10775_42 (select ARGNAME_input_NAMEEND_DIMSIZE temp10775_41)))
(assert (bvsgt ARGNAME_input_NAMEEND_DIM temp10775_40))
(assert (bvsge temp10775_40 (bvneg ARGNAME_input_NAMEEND_DIM)))
(assert (= temp10775_43 temp10775_21))
(assert (= var404256
   (ite (= temp10775_42 temp10775_43) #x0000000000000001 #x0000000000000000)))
(assert (= temp10775_44 #x0000000000000001))
(assert (= var404256 temp10775_44))
(assert (= temp10775_45 #x0000000000000000))
(assert (= temp10775_46 temp10775_45))
(assert (= temp10775_47 (select ARGNAME_b_ih_NAMEEND_DIMSIZE temp10775_46)))
(assert (= temp10775_48 #x0000000000000001))
(assert (= temp10775_49 temp10775_48))
(assert (= temp10775_50 (select ARGNAME_b_ih_NAMEEND_DIMSIZE temp10775_49)))
(assert (= temp10775_51 #x0000000000000002))
(assert (= temp10775_52 temp10775_51))
(assert (= temp10775_53 (select ARGNAME_b_ih_NAMEEND_DIMSIZE temp10775_52)))
(assert (= temp10775_54 #x0000000000000003))
(assert (= temp10775_55 temp10775_54))
(assert (= temp10775_56 (select ARGNAME_b_ih_NAMEEND_DIMSIZE temp10775_55)))
(assert (= temp10775_57 #x0000000000000004))
(assert (= temp10775_58 temp10775_57))
(assert (= temp10775_59 (select ARGNAME_b_ih_NAMEEND_DIMSIZE temp10775_58)))
(assert (= temp10775_60 #x0000000000000005))
(assert (= temp10775_61 temp10775_60))
(assert (= temp10775_62 (select ARGNAME_b_ih_NAMEEND_DIMSIZE temp10775_61)))
(assert (= temp10775_63 #x0000000000000001))
(assert (= temp10775_64 temp10775_63))
(assert (= temp10775_65 (select ARGNAME_b_ih_NAMEEND_DIMSIZE temp10775_64)))
(assert (bvsgt ARGNAME_b_ih_NAMEEND_DIM temp10775_63))
(assert (bvsge temp10775_63 (bvneg ARGNAME_b_ih_NAMEEND_DIM)))
(assert (= temp10775_66 #x0000000000000000))
(assert (= var65706 temp10775_66))
(assert (= temp10775_67 temp10775_65))
(assert (= temp10775_68 #x0000000000000000))
(assert (= temp10775_69 temp10775_68))
(assert (= temp10775_70 (select ARGNAME_input_NAMEEND_DIMSIZE temp10775_69)))
(assert (bvsgt ARGNAME_input_NAMEEND_DIM temp10775_68))
(assert (bvsge temp10775_68 (bvneg ARGNAME_input_NAMEEND_DIM)))
(assert (= temp10775_71 temp10775_67))
(assert (= temp10775_72 #x0000000000000001))
(assert (= var68976 temp10775_72))
(assert (= temp10775_73 temp10775_65))
(assert (= temp10775_74 #x0000000000000000))
(assert (= temp10775_75 temp10775_74))
(assert (= temp10775_76 (select ARGNAME_input_NAMEEND_DIMSIZE temp10775_75)))
(assert (bvsgt ARGNAME_input_NAMEEND_DIM temp10775_74))
(assert (bvsge temp10775_74 (bvneg ARGNAME_input_NAMEEND_DIM)))
(assert (= temp10775_77 temp10775_73))
(assert (= temp10775_78 #x0000000000000000))
(assert (= var65706 temp10775_78))
(assert (= temp10775_79 #x0000000000000001))
(assert (= var68976 temp10775_79))
(assert (= temp10775_80 #x0000000000000000))
(assert (= var2041840 temp10775_80))
(assert (= temp10775_81 #x0000000000000000))
(assert (= var2041840 temp10775_81))
(assert (= temp10775_82 #x0000000000000001))
(assert (= var2887497 temp10775_82))
(assert (= temp10775_83 #x0000000000000004))
(assert (= var3215425 temp10775_83))
(assert (= temp10775_84 #x0000000000000001))
(assert (= var3215426 temp10775_84))
(assert (= temp10775_85 #x0000000000000000))
(assert (= var3280971 temp10775_85))
(assert (= temp10775_86 #x0000000000000001))
(assert (= var3412043 temp10775_86))
(assert (= temp10775_87 #x0000000000000002))
(assert (= var3543115 temp10775_87))
(assert (= temp10775_88 #x0000000000000003))
(assert (= var3674187 temp10775_88))
(assert (= temp10775_89 #x0000000000000001))
(assert (= var3805001 temp10775_89))
(model-add temp10775_1 () (_ BitVec 64) #x0000000000000000)
(model-add temp10775_2 () (_ BitVec 64) #x0000000000000000)
(model-add temp10775_3
           ()
           (_ BitVec 64)
           (select ARGNAME_w_hh_NAMEEND_DIMSIZE #x0000000000000000))
(model-add temp10775_4 () (_ BitVec 64) #x0000000000000001)
(model-add temp10775_5 () (_ BitVec 64) #x0000000000000001)
(model-add temp10775_6
           ()
           (_ BitVec 64)
           (select ARGNAME_w_hh_NAMEEND_DIMSIZE #x0000000000000001))
(model-add temp10775_7 () (_ BitVec 64) #x0000000000000002)
(model-add temp10775_8 () (_ BitVec 64) #x0000000000000002)
(model-add temp10775_9
           ()
           (_ BitVec 64)
           (select ARGNAME_w_hh_NAMEEND_DIMSIZE #x0000000000000002))
(model-add temp10775_10 () (_ BitVec 64) #x0000000000000003)
(model-add temp10775_11 () (_ BitVec 64) #x0000000000000003)
(model-add temp10775_12
           ()
           (_ BitVec 64)
           (select ARGNAME_w_hh_NAMEEND_DIMSIZE #x0000000000000003))
(model-add temp10775_13 () (_ BitVec 64) #x0000000000000004)
(model-add temp10775_14 () (_ BitVec 64) #x0000000000000004)
(model-add temp10775_15
           ()
           (_ BitVec 64)
           (select ARGNAME_w_hh_NAMEEND_DIMSIZE #x0000000000000004))
(model-add temp10775_16 () (_ BitVec 64) #x0000000000000005)
(model-add temp10775_17 () (_ BitVec 64) #x0000000000000005)
(model-add temp10775_18
           ()
           (_ BitVec 64)
           (select ARGNAME_w_hh_NAMEEND_DIMSIZE #x0000000000000005))
(model-add temp10775_19 () (_ BitVec 64) #x0000000000000001)
(model-add temp10775_20 () (_ BitVec 64) #x0000000000000001)
(model-add temp10775_21
           ()
           (_ BitVec 64)
           (select ARGNAME_w_hh_NAMEEND_DIMSIZE #x0000000000000001))
(model-add temp10775_22 () (_ BitVec 64) #x0000000000000000)
(model-add temp10775_23 () (_ BitVec 64) #x0000000000000000)
(model-add temp10775_24
           ()
           (_ BitVec 64)
           (select ARGNAME_input_NAMEEND_DIMSIZE #x0000000000000000))
(model-add temp10775_25 () (_ BitVec 64) #x0000000000000001)
(model-add temp10775_26 () (_ BitVec 64) #x0000000000000001)
(model-add temp10775_27
           ()
           (_ BitVec 64)
           (select ARGNAME_input_NAMEEND_DIMSIZE #x0000000000000001))
(model-add temp10775_28 () (_ BitVec 64) #x0000000000000002)
(model-add temp10775_29 () (_ BitVec 64) #x0000000000000002)
(model-add temp10775_30
           ()
           (_ BitVec 64)
           (select ARGNAME_input_NAMEEND_DIMSIZE #x0000000000000002))
(model-add temp10775_31 () (_ BitVec 64) #x0000000000000003)
(model-add temp10775_32 () (_ BitVec 64) #x0000000000000003)
(model-add temp10775_33
           ()
           (_ BitVec 64)
           (select ARGNAME_input_NAMEEND_DIMSIZE #x0000000000000003))
(model-add temp10775_34 () (_ BitVec 64) #x0000000000000004)
(model-add temp10775_35 () (_ BitVec 64) #x0000000000000004)
(model-add temp10775_36
           ()
           (_ BitVec 64)
           (select ARGNAME_input_NAMEEND_DIMSIZE #x0000000000000004))
(model-add temp10775_37 () (_ BitVec 64) #x0000000000000005)
(model-add temp10775_38 () (_ BitVec 64) #x0000000000000005)
(model-add temp10775_39
           ()
           (_ BitVec 64)
           (select ARGNAME_input_NAMEEND_DIMSIZE #x0000000000000005))
(model-add temp10775_40 () (_ BitVec 64) #x0000000000000001)
(model-add temp10775_41 () (_ BitVec 64) #x0000000000000001)
(model-add temp10775_42
           ()
           (_ BitVec 64)
           (select ARGNAME_input_NAMEEND_DIMSIZE #x0000000000000001))
(model-add temp10775_43
           ()
           (_ BitVec 64)
           (select ARGNAME_w_hh_NAMEEND_DIMSIZE #x0000000000000001))
(model-add temp10775_44 () (_ BitVec 64) #x0000000000000001)
(model-add var404256 () (_ BitVec 64) #x0000000000000001)
(model-del k!0)
(model-add ARGNAME_input_NAMEEND_DIMSIZE
           ()
           (Array (_ BitVec 64) (_ BitVec 64))
           ((as const (Array (_ BitVec 64) (_ BitVec 64))) k!0))
(model-del k!1)
(model-add ARGNAME_w_hh_NAMEEND_DIMSIZE
           ()
           (Array (_ BitVec 64) (_ BitVec 64))
           ((as const (Array (_ BitVec 64) (_ BitVec 64))) k!1))
(model-del k!2)
(model-add k!0 () (_ BitVec 64) (ite k!2 k!1 (bvnot k!1)))






